sat
(:max-memory         18.72
 :memory             18.53
 :nlsat-arith-var    3
 :nlsat-atoms        8
 :nlsat-bool-var     1
 :nlsat-clauses      8
 :nlsat-propagations 8
 :nlsat-stages       4
 :num-allocs         103086
 :rlimit-count       17364
 :time               0.02
 :total-time         0.03)
